c This is a CNF SAT formula in the DIMACS CNF format,
c produced with the bc2cnf translator by Tommi Junttila;
c see http://users.ics.aalto.fi/tjunttil/circuits/index.html
c phi_Gamma <-> 1
c phi_T_transitions <-> 1
c phi_T_transitions_consistency <-> 1
c phi_T <-> 1
c phi_sim_leaves <-> 1
c phi_sim_transition <-> 1
c phi_sim <-> 1
c FORMULA <-> 1
c pi_0_15 <-> 2
c pi_0_21 <-> 2
c pi_0_22 <-> 2
c pi_0_27 <-> 2
c pi_0_28 <-> 2
c pi_0_18 <-> 15
c pi_0_26 <-> 15
c pi_0_25 <-> 28
c pi_0_24 <-> 32
c pi_0_23 <-> 35
c pi_0_20 <-> 37
c pi_0_11 <-> 40
c pi_0_19 <-> 40
c pi_0_17 <-> 42
c pi_0_16 <-> 44
c pi_0_14 <-> 48
c pi_0_13 <-> 50
c pi_0_12 <-> 51
c pi_0_10 <-> 52
c pi_0_9 <-> 56
c pi_0_0 <-> 60
c pi_0_8 <-> 60
c pi_0_2 <-> 66
c pi_0_7 <-> 66
c pi_0_6 <-> 68
c pi_0_5 <-> 73
c pi_0_4 <-> 77
c pi_0_3 <-> 78
c pi_0_1 <-> 81
c alp_approved_1_0 <-> 82
c alp_approved_0_1 <-> 82
c alp_approved_1_2 <-> 82
c alp_approved_0_3 <-> 82
c alp_approved_1_4 <-> 82
c alp_approved_0_5 <-> 82
c alp_approved_0_6 <-> 82
c alp_approved_1_7 <-> 82
c alp_approved_1_8 <-> 82
c alp_approved_1_9 <-> 82
c alp_approved_1_10 <-> 82
c alp_approved_1_11 <-> 82
c alp_approved_1_12 <-> 82
c alp_approved_0_13 <-> 82
c alp_approved_0_14 <-> 82
c alp_approved_0_15 <-> 82
c alp_approved_0_16 <-> 82
c alp_approved_1_17 <-> 82
c alp_approved_1_18 <-> 82
c alp_approved_1_19 <-> 82
c alp_approved_0_20 <-> 82
c alp_approved_0_21 <-> 82
c alp_approved_0_22 <-> 82
c alp_approved_1_23 <-> 82
c alp_approved_1_24 <-> 82
c alp_approved_1_25 <-> 82
c alp_approved_1_26 <-> 82
c alp_approved_0_27 <-> 82
c alp_approved_0_28 <-> 82
c alp_approved_1_1 <-> 83
c alp_approved_1_3 <-> 83
c alp_approved_1_5 <-> 83
c alp_approved_1_6 <-> 83
c alp_approved_1_13 <-> 83
c alp_approved_1_14 <-> 83
c alp_approved_1_15 <-> 83
c alp_approved_1_16 <-> 83
c alp_approved_1_20 <-> 83
c alp_approved_1_21 <-> 83
c alp_approved_1_22 <-> 83
c alp_approved_1_27 <-> 83
c alp_approved_1_28 <-> 83
c approved_P100 <-> 83
c alp_approved_0_0 <-> 84
c alp_approved_0_2 <-> 84
c alp_approved_0_4 <-> 84
c alp_approved_0_7 <-> 84
c alp_approved_0_8 <-> 84
c alp_approved_0_9 <-> 84
c alp_approved_0_10 <-> 84
c alp_approved_0_11 <-> 84
c alp_approved_0_12 <-> 84
c alp_approved_0_17 <-> 84
c alp_approved_0_18 <-> 84
c alp_approved_0_19 <-> 84
c alp_approved_0_23 <-> 84
c alp_approved_0_24 <-> 84
c alp_approved_0_25 <-> 84
c alp_approved_0_26 <-> 84
c approved_P0 <-> 84
c tau_0_3_approved_1 <-> 111
c tau_0_3_approved_0 <-> 112
c tau_0_2_approved_1 <-> 113
c tau_0_2_approved_0 <-> 114
c tau_0_1_approved_1 <-> 115
c tau_0_1_approved_0 <-> 116
c tau_0_0_approved_1 <-> 117
c tau_0_0_approved_0 <-> 118
c phi_T_feature_det <-> 119
c lam_0_credit_score <-> 132
c lam_0_dependents <-> 134
c lam_0_monthly_income <-> 136
c lam_0_age <-> 137
p wcnf 137 423 30  
30 1 0
30 2 -3 0
30 2 -6 0
30 -2 6 3 0
1 2 0
30 -3 4 0
30 -3 132 0
30 3 -132 -4 0
30 -4 5 0
30 -4 -116 0
30 4 116 -5 0
30 5 115 0
30 5 -83 0
30 -5 83 -115 0
30 6 -7 0
30 6 -8 0
30 -6 8 7 0
30 -7 10 0
30 -7 134 0
30 7 -134 -10 0
30 8 -9 0
30 8 -12 0
30 -8 12 9 0
30 -9 10 0
30 -9 136 0
30 9 -136 -10 0
30 -10 11 0
30 -10 -118 0
30 10 118 -11 0
30 11 117 0
30 11 -83 0
30 -11 83 -117 0
30 -12 13 0
30 -12 137 0
30 12 -137 -13 0
30 -13 14 0
30 -13 -112 0
30 13 112 -14 0
30 14 111 0
30 14 -83 0
30 -14 83 -111 0
30 15 -16 0
30 15 -19 0
30 -15 19 16 0
1 15 0
30 -16 17 0
30 -16 132 0
30 16 -132 -17 0
30 -17 -113 0
30 -17 18 0
30 17 -18 113 0
30 18 114 0
30 18 -84 0
30 -18 84 -114 0
30 19 -20 0
30 19 -21 0
30 -19 21 20 0
30 -20 23 0
30 -20 134 0
30 20 -134 -23 0
30 21 -22 0
30 21 -25 0
30 -21 25 22 0
30 -22 23 0
30 -22 136 0
30 22 -136 -23 0
30 -23 -115 0
30 -23 24 0
30 23 -24 115 0
30 24 116 0
30 24 -84 0
30 -24 84 -116 0
30 -25 26 0
30 -25 137 0
30 25 -137 -26 0
30 -26 -117 0
30 -26 27 0
30 26 -27 117 0
30 27 118 0
30 27 -84 0
30 -27 84 -118 0
30 28 -16 0
30 28 -29 0
30 -28 29 16 0
1 28 0
30 29 -20 0
30 29 -30 0
30 -29 30 20 0
30 30 -22 0
30 30 -31 0
30 -30 31 22 0
30 -31 23 0
30 -31 137 0
30 31 -137 -23 0
30 32 -16 0
30 32 -33 0
30 -32 33 16 0
1 32 0
30 33 -30 0
30 33 -34 0
30 -33 34 30 0
30 -34 26 0
30 -34 134 0
30 34 -134 -26 0
30 35 -16 0
30 35 -36 0
30 -35 36 16 0
1 35 0
30 36 -21 0
30 36 -34 0
30 -36 34 21 0
30 37 -3 0
30 37 -38 0
30 -37 38 3 0
1 37 0
30 38 -8 0
30 38 -39 0
30 -38 39 8 0
30 -39 4 0
30 -39 134 0
30 39 -134 -4 0
30 40 -29 0
30 40 -41 0
30 -40 41 29 0
1 40 0
30 -41 23 0
30 -41 132 0
30 41 -132 -23 0
30 42 -19 0
30 42 -43 0
30 -42 43 19 0
1 42 0
30 -43 26 0
30 -43 132 0
30 43 -132 -26 0
30 44 -38 0
30 44 -45 0
30 -44 45 38 0
1 44 0
30 -45 46 0
30 -45 132 0
30 45 -132 -46 0
30 -46 -114 0
30 -46 47 0
30 46 -47 114 0
30 47 113 0
30 47 -83 0
30 -47 83 -113 0
30 48 -38 0
30 48 -49 0
30 -48 49 38 0
1 48 0
30 -49 10 0
30 -49 132 0
30 49 -132 -10 0
30 50 -6 0
30 50 -49 0
30 -50 49 6 0
1 50 0
30 51 -29 0
30 51 -43 0
30 -51 43 29 0
1 51 0
30 52 -16 0
30 52 -53 0
30 -52 53 16 0
1 52 0
30 53 -20 0
30 53 -54 0
30 -53 54 20 0
30 54 -22 0
30 54 -55 0
30 -54 55 22 0
30 -55 17 0
30 -55 137 0
30 55 -137 -17 0
30 56 -16 0
30 56 -57 0
30 -56 57 16 0
1 56 0
30 57 -34 0
30 57 -58 0
30 -57 58 34 0
30 58 -31 0
30 58 -59 0
30 -58 59 31 0
30 -59 26 0
30 -59 136 0
30 59 -136 -26 0
30 60 -41 0
30 60 -61 0
30 -60 61 41 0
1 60 0
30 61 -20 0
30 61 -62 0
30 -61 62 20 0
30 62 -59 0
30 62 -63 0
30 -62 63 59 0
30 -63 64 0
30 -63 137 0
30 63 -137 -64 0
30 -64 -111 0
30 -64 65 0
30 64 -65 111 0
30 65 112 0
30 65 -84 0
30 -65 84 -112 0
30 66 -43 0
30 66 -67 0
30 -66 67 43 0
1 66 0
30 67 -20 0
30 67 -58 0
30 -67 58 20 0
30 68 -45 0
30 68 -69 0
30 -68 69 45 0
1 68 0
30 69 -39 0
30 69 -70 0
30 -69 70 39 0
30 70 -71 0
30 70 -72 0
30 -70 72 71 0
30 -71 4 0
30 -71 136 0
30 71 -136 -4 0
30 -72 46 0
30 -72 137 0
30 72 -137 -46 0
30 73 -49 0
30 73 -74 0
30 -73 74 49 0
1 73 0
30 74 -39 0
30 74 -75 0
30 -74 75 39 0
30 75 -71 0
30 75 -76 0
30 -75 76 71 0
30 -76 4 0
30 -76 137 0
30 76 -137 -4 0
30 77 -41 0
30 77 -67 0
30 -77 67 41 0
1 77 0
30 78 -45 0
30 78 -79 0
30 -78 79 45 0
1 78 0
30 79 -7 0
30 79 -80 0
30 -79 80 7 0
30 80 -12 0
30 80 -71 0
30 -80 71 12 0
30 81 -3 0
30 81 -74 0
30 -81 74 3 0
1 81 0
30 -82 0
30 85 132 0
30 85 -86 0
30 -85 86 -132 0
30 85 0
30 -86 -111 0
30 -86 -112 0
30 86 112 111 0
30 87 134 0
30 87 -88 0
30 -87 88 -134 0
30 87 0
30 -88 -111 0
30 -88 89 0
30 88 -89 111 0
30 -89 -112 0
30 -89 90 0
30 89 -90 112 0
30 -90 -113 0
30 -90 -114 0
30 90 114 113 0
30 91 -88 0
30 91 136 0
30 -91 -136 88 0
30 91 0
30 92 132 0
30 92 -93 0
30 -92 93 -132 0
30 92 0
30 -93 94 0
30 -93 97 0
30 93 -97 -94 0
30 94 -95 0
30 94 -96 0
30 -94 96 95 0
30 -95 -114 0
30 -95 113 0
30 95 -113 114 0
30 -96 -113 0
30 -96 114 0
30 96 -114 113 0
30 -97 98 0
30 -97 101 0
30 97 -101 -98 0
30 98 -99 0
30 98 -100 0
30 -98 100 99 0
30 -99 -116 0
30 -99 115 0
30 99 -115 116 0
30 -100 -115 0
30 -100 116 0
30 100 -116 115 0
30 101 -102 0
30 101 -103 0
30 -101 103 102 0
30 -102 -118 0
30 -102 117 0
30 102 -117 118 0
30 -103 -117 0
30 -103 118 0
30 103 -118 117 0
30 104 134 0
30 104 -97 0
30 -104 97 -134 0
30 104 0
30 105 136 0
30 105 -97 0
30 -105 97 -136 0
30 105 0
30 106 137 0
30 106 -107 0
30 -106 107 -137 0
30 106 0
30 -107 93 0
30 -107 108 0
30 107 -108 -93 0
30 108 -109 0
30 108 -110 0
30 -108 110 109 0
30 -109 -112 0
30 -109 111 0
30 109 -111 112 0
30 -110 -111 0
30 -110 112 0
30 110 -112 111 0
30 119 -120 0
30 119 -123 0
30 -119 123 120 0
30 119 0
30 -120 -134 0
30 -120 121 0
30 120 -121 134 0
30 -121 -136 0
30 -121 122 0
30 121 -122 136 0
30 -122 -137 0
30 -122 132 0
30 122 -132 137 0
30 123 -124 0
30 123 -127 0
30 -123 127 124 0
30 -124 -132 0
30 -124 125 0
30 124 -125 132 0
30 -125 -136 0
30 -125 126 0
30 125 -126 136 0
30 -126 -137 0
30 -126 134 0
30 126 -134 137 0
30 127 -128 0
30 127 -131 0
30 -127 131 128 0
30 -128 -132 0
30 -128 129 0
30 128 -129 132 0
30 -129 -134 0
30 -129 130 0
30 129 -130 134 0
30 -130 -137 0
30 -130 136 0
30 130 -136 137 0
30 -131 -132 0
30 -131 133 0
30 131 -133 132 0
30 -133 -134 0
30 -133 135 0
30 133 -135 134 0
30 -135 -136 0
30 -135 137 0
30 135 -137 136 0
